p cnf 540 1280
a 414 457 419 422 436 439 443 446 235 238 243 246 251 254 258 261 503 341 345 348 353 513 358 361 371 374 378 381 386 389 393 396 7 13 24 30 2 1 40 18 6 12 35 23 29 50 45 60 55 70 65 80 75 85 90 95 105 100 110 115 120 130 125 135 140 145 234 150 176 162 154 158 171 167 186 181 196 191 205 201 214 210 219 224 229 339 286 270 274 282 278 296 291 301 306 316 311 321 325 329 334 370 413 405 409 435 430 0
d 454 234 339 370 413 435 0
d 287 270 274 282 7 0
d 340 286 2 503 0
d 417 457 405 409 2 0
d 356 2 513 321 7 325 0
d 3 2 0
d 4 1 2 0
d 5 1 2 0
d 8 7 0
d 9 6 7 0
d 10 6 7 0
d 11 1 2 6 7 0
d 14 13 0
d 15 12 13 0
d 16 12 13 0
d 17 1 2 6 7 12 13 0
d 19 6 12 0
d 20 18 6 12 0
d 21 18 6 12 0
d 22 1 2 6 7 12 13 18 0
d 25 24 0
d 26 23 24 0
d 27 23 24 0
d 28 1 2 6 7 12 13 18 23 24 0
d 31 30 0
d 32 29 30 0
d 33 29 30 0
d 34 1 2 6 7 12 13 18 23 24 29 30 0
d 36 23 29 0
d 37 35 23 29 0
d 38 35 23 29 0
d 39 1 2 6 7 12 13 18 23 24 29 30 35 0
d 41 18 35 0
d 42 40 18 35 0
d 43 40 18 35 0
d 44 1 2 6 7 12 13 18 23 24 29 30 35 40 0
d 46 7 12 0
d 47 45 7 12 0
d 48 45 7 12 0
d 49 1 2 6 7 12 13 18 23 24 29 30 35 40 45 0
d 51 45 35 0
d 52 50 45 35 0
d 53 50 45 35 0
d 54 1 2 6 7 12 13 18 23 24 29 30 35 40 45 50 0
d 56 6 13 0
d 57 55 6 13 0
d 58 55 6 13 0
d 59 1 2 6 7 12 13 18 23 24 29 30 35 40 45 50 55 0
d 61 55 35 0
d 62 60 55 35 0
d 63 60 55 35 0
d 64 1 2 6 7 12 13 18 23 24 29 30 35 40 45 50 55 60 0
d 66 7 13 0
d 67 65 7 13 0
d 68 65 7 13 0
d 69 1 2 6 7 12 13 18 23 24 29 30 35 40 45 50 55 60 65 0
d 71 65 35 0
d 72 70 65 35 0
d 73 70 65 35 0
d 74 1 2 6 7 12 13 18 23 24 29 30 35 40 45 50 55 60 65 70 0
d 76 24 29 0
d 77 75 24 29 0
d 78 75 24 29 0
d 79 1 2 6 7 12 13 18 23 24 29 30 35 40 45 50 55 60 65 70 75 0
d 81 18 75 0
d 82 80 18 75 0
d 83 80 18 75 0
d 84 1 2 6 7 12 13 18 23 24 29 30 35 40 45 50 55 60 65 70 75 80 0
d 86 45 75 0
d 87 85 45 75 0
d 88 85 45 75 0
d 89 1 2 6 7 12 13 18 23 24 29 30 35 40 45 50 55 60 65 70 75 80 85 0
d 91 55 75 0
d 92 90 55 75 0
d 93 90 55 75 0
d 94 1 2 6 7 12 13 18 23 24 29 30 35 40 45 50 55 60 65 70 75 80 85 90 0
d 96 65 75 0
d 97 95 65 75 0
d 98 95 65 75 0
d 99 1 2 6 7 12 13 18 23 24 29 30 35 40 45 50 55 60 65 70 75 80 85 90 95 0
d 101 23 30 0
d 102 100 23 30 0
d 103 100 23 30 0
d 104 1 2 6 7 12 13 18 23 24 29 30 35 40 45 50 55 60 65 70 75 80 85 90 95 100 0
d 106 18 100 0
d 107 105 18 100 0
d 108 105 18 100 0
d 109 1 2 6 7 12 13 18 23 24 29 30 35 40 45 50 55 60 65 70 75 80 85 90 95 100 105 0
d 111 45 100 0
d 112 110 45 100 0
d 113 110 45 100 0
d 114 1 2 6 7 12 13 18 23 24 29 30 35 40 45 50 55 60 65 70 75 80 85 90 95 100 105 110 0
d 116 55 100 0
d 117 115 55 100 0
d 118 115 55 100 0
d 119 1 2 6 7 12 13 18 23 24 29 30 35 40 45 50 55 60 65 70 75 80 85 90 95 100 105 110 115 0
d 121 65 100 0
d 122 120 65 100 0
d 123 120 65 100 0
d 124 1 2 6 7 12 13 18 23 24 29 30 35 40 45 50 55 60 65 70 75 80 85 90 95 100 105 110 115 120 0
d 126 24 30 0
d 127 125 24 30 0
d 128 125 24 30 0
d 129 1 2 6 7 12 13 18 23 24 29 30 35 40 45 50 55 60 65 70 75 80 85 90 95 100 105 110 115 120 125 0
d 131 18 125 0
d 132 130 18 125 0
d 133 130 18 125 0
d 134 1 2 6 7 12 13 18 23 24 29 30 35 40 45 50 55 60 65 70 75 80 85 90 95 100 105 110 115 120 125 130 0
d 136 45 125 0
d 137 135 45 125 0
d 138 135 45 125 0
d 139 1 2 6 7 12 13 18 23 24 29 30 35 40 45 50 55 60 65 70 75 80 85 90 95 100 105 110 115 120 125 130 135 0
d 141 55 125 0
d 142 140 55 125 0
d 143 140 55 125 0
d 144 1 2 6 7 12 13 18 23 24 29 30 35 40 45 50 55 60 65 70 75 80 85 90 95 100 105 110 115 120 125 130 135 140 0
d 146 65 125 0
d 147 145 65 125 0
d 148 145 65 125 0
d 149 1 2 6 7 12 13 18 23 24 29 30 35 40 45 50 55 60 65 70 75 80 85 90 95 100 105 110 115 120 125 130 135 140 145 0
d 151 150 2 0
d 152 150 2 0
d 153 1 2 6 7 12 13 18 23 24 29 30 35 40 45 50 55 60 65 70 75 80 85 90 95 100 105 110 115 120 125 130 135 140 145 150 0
d 155 154 7 0
d 156 154 7 0
d 157 1 2 6 7 12 13 18 23 24 29 30 35 40 45 50 55 60 65 70 75 80 85 90 95 100 105 110 115 120 125 130 135 140 145 150 154 0
d 159 158 13 0
d 160 158 13 0
d 161 1 2 6 7 12 13 18 23 24 29 30 35 40 45 50 55 60 65 70 75 80 85 90 95 100 105 110 115 120 125 130 135 140 145 150 154 158 0
d 163 154 158 0
d 164 162 154 158 0
d 165 162 154 158 0
d 166 1 2 6 7 12 13 18 23 24 29 30 35 40 45 50 55 60 65 70 75 80 85 90 95 100 105 110 115 120 125 130 135 140 145 150 154 158 162 0
d 168 167 24 0
d 169 167 24 0
d 170 1 2 6 7 12 13 18 23 24 29 30 35 40 45 50 55 60 65 70 75 80 85 90 95 100 105 110 115 120 125 130 135 140 145 150 154 158 162 167 0
d 172 167 30 0
d 173 171 167 30 0
d 174 171 167 30 0
d 175 1 2 6 7 12 13 18 23 24 29 30 35 40 45 50 55 60 65 70 75 80 85 90 95 100 105 110 115 120 125 130 135 140 145 150 154 158 162 167 171 0
d 177 162 171 0
d 178 176 162 171 0
d 179 176 162 171 0
d 180 1 2 6 7 12 13 18 23 24 29 30 35 40 45 50 55 60 65 70 75 80 85 90 95 100 105 110 115 120 125 130 135 140 145 150 154 158 162 167 171 176 0
d 182 7 158 0
d 183 181 7 158 0
d 184 181 7 158 0
d 185 1 2 6 7 12 13 18 23 24 29 30 35 40 45 50 55 60 65 70 75 80 85 90 95 100 105 110 115 120 125 130 135 140 145 150 154 158 162 167 171 176 181 0
d 187 181 171 0
d 188 186 181 171 0
d 189 186 181 171 0
d 190 1 2 6 7 12 13 18 23 24 29 30 35 40 45 50 55 60 65 70 75 80 85 90 95 100 105 110 115 120 125 130 135 140 145 150 154 158 162 167 171 176 181 186 0
d 192 154 13 0
d 193 191 154 13 0
d 194 191 154 13 0
d 195 1 2 6 7 12 13 18 23 24 29 30 35 40 45 50 55 60 65 70 75 80 85 90 95 100 105 110 115 120 125 130 135 140 145 150 154 158 162 167 171 176 181 186 191 0
d 197 191 171 0
d 198 196 191 171 0
d 199 196 191 171 0
d 200 1 2 6 7 12 13 18 23 24 29 30 35 40 45 50 55 60 65 70 75 80 85 90 95 100 105 110 115 120 125 130 135 140 145 150 154 158 162 167 171 176 181 186 191 196 0
d 202 201 7 13 0
d 203 201 7 13 0
d 204 1 2 6 7 12 13 18 23 24 29 30 35 40 45 50 55 60 65 70 75 80 85 90 95 100 105 110 115 120 125 130 135 140 145 150 154 158 162 167 171 176 181 186 191 196 201 0
d 206 201 171 0
d 207 205 201 171 0
d 208 205 201 171 0
d 209 1 2 6 7 12 13 18 23 24 29 30 35 40 45 50 55 60 65 70 75 80 85 90 95 100 105 110 115 120 125 130 135 140 145 150 154 158 162 167 171 176 181 186 191 196 201 205 0
d 211 210 24 30 0
d 212 210 24 30 0
d 213 1 2 6 7 12 13 18 23 24 29 30 35 40 45 50 55 60 65 70 75 80 85 90 95 100 105 110 115 120 125 130 135 140 145 150 154 158 162 167 171 176 181 186 191 196 201 205 210 0
d 215 162 210 0
d 216 214 162 210 0
d 217 214 162 210 0
d 218 1 2 6 7 12 13 18 23 24 29 30 35 40 45 50 55 60 65 70 75 80 85 90 95 100 105 110 115 120 125 130 135 140 145 150 154 158 162 167 171 176 181 186 191 196 201 205 210 214 0
d 220 181 210 0
d 221 219 181 210 0
d 222 219 181 210 0
d 223 1 2 6 7 12 13 18 23 24 29 30 35 40 45 50 55 60 65 70 75 80 85 90 95 100 105 110 115 120 125 130 135 140 145 150 154 158 162 167 171 176 181 186 191 196 201 205 210 214 219 0
d 225 191 210 0
d 226 224 191 210 0
d 227 224 191 210 0
d 228 1 2 6 7 12 13 18 23 24 29 30 35 40 45 50 55 60 65 70 75 80 85 90 95 100 105 110 115 120 125 130 135 140 145 150 154 158 162 167 171 176 181 186 191 196 201 205 210 214 219 224 0
d 230 201 210 0
d 231 229 201 210 0
d 232 229 201 210 0
d 233 1 2 6 7 12 13 18 23 24 29 30 35 40 45 50 55 60 65 70 75 80 85 90 95 100 105 110 115 120 125 130 135 140 145 150 154 158 162 167 171 176 181 186 191 196 201 205 210 214 219 224 229 0
d 236 150 235 0
d 237 150 235 176 0
d 239 150 238 0
d 240 150 238 186 0
d 241 150 238 186 0
d 242 150 235 176 238 186 0
d 244 150 243 0
d 245 150 243 196 0
d 247 150 246 0
d 248 150 246 205 0
d 249 150 243 196 246 205 0
d 250 150 235 176 238 186 243 196 246 205 0
d 252 150 251 0
d 253 150 251 214 0
d 255 150 254 0
d 256 150 254 219 0
d 257 150 251 214 254 219 0
d 259 150 258 0
d 260 150 258 224 0
d 262 150 261 0
d 263 150 261 229 0
d 264 150 258 224 261 229 0
d 265 150 251 214 254 219 258 224 261 229 0
d 266 150 235 176 238 186 243 196 246 205 251 214 254 219 258 224 261 229 0
d 267 234 150 235 176 238 186 243 196 246 205 251 214 254 219 258 224 261 229 0
d 268 234 150 235 176 238 186 243 196 246 205 251 214 254 219 258 224 261 229 0
d 269 1 2 6 7 12 13 18 23 24 29 30 35 40 45 50 55 60 65 70 75 80 85 90 95 100 105 110 115 120 125 130 135 140 145 150 154 158 162 167 171 176 181 186 191 196 201 205 210 214 219 224 229 234 235 238 243 246 251 254 258 261 0
d 271 270 158 0
d 272 270 158 0
d 273 1 2 6 7 12 13 18 23 24 29 30 35 40 45 50 55 60 65 70 75 80 85 90 95 100 105 110 115 120 125 130 135 140 145 150 154 158 162 167 171 176 181 186 191 196 201 205 210 214 219 224 229 234 235 238 243 246 251 254 258 261 270 0
d 275 274 167 0
d 276 274 167 0
d 277 1 2 6 7 12 13 18 23 24 29 30 35 40 45 50 55 60 65 70 75 80 85 90 95 100 105 110 115 120 125 130 135 140 145 150 154 158 162 167 171 176 181 186 191 196 201 205 210 214 219 224 229 234 235 238 243 246 251 254 258 261 270 274 0
d 279 278 30 0
d 280 278 30 0
d 281 1 2 6 7 12 13 18 23 24 29 30 35 40 45 50 55 60 65 70 75 80 85 90 95 100 105 110 115 120 125 130 135 140 145 150 154 158 162 167 171 176 181 186 191 196 201 205 210 214 219 224 229 234 235 238 243 246 251 254 258 261 270 274 278 0
d 283 282 278 0
d 284 282 278 0
d 285 1 2 6 7 12 13 18 23 24 29 30 35 40 45 50 55 60 65 70 75 80 85 90 95 100 105 110 115 120 125 130 135 140 145 150 154 158 162 167 171 176 181 186 191 196 201 205 210 214 219 224 229 234 235 238 243 246 251 254 258 261 270 274 278 282 0
d 288 286 270 274 282 7 0
d 289 286 270 274 282 7 0
d 290 1 2 6 7 12 13 18 23 24 29 30 35 40 45 50 55 60 65 70 75 80 85 90 95 100 105 110 115 120 125 130 135 140 145 150 154 158 162 167 171 176 181 186 191 196 201 205 210 214 219 224 229 234 235 238 243 246 251 254 258 261 270 274 278 282 286 0
d 292 167 278 0
d 293 291 167 278 0
d 294 291 167 278 0
d 295 1 2 6 7 12 13 18 23 24 29 30 35 40 45 50 55 60 65 70 75 80 85 90 95 100 105 110 115 120 125 130 135 140 145 150 154 158 162 167 171 176 181 186 191 196 201 205 210 214 219 224 229 234 235 238 243 246 251 254 258 261 270 274 278 282 286 291 0
d 297 181 291 0
d 298 296 181 291 0
d 299 296 181 291 0
d 300 1 2 6 7 12 13 18 23 24 29 30 35 40 45 50 55 60 65 70 75 80 85 90 95 100 105 110 115 120 125 130 135 140 145 150 154 158 162 167 171 176 181 186 191 196 201 205 210 214 219 224 229 234 235 238 243 246 251 254 258 261 270 274 278 282 286 291 296 0
d 302 191 291 0
d 303 301 191 291 0
d 304 301 191 291 0
d 305 1 2 6 7 12 13 18 23 24 29 30 35 40 45 50 55 60 65 70 75 80 85 90 95 100 105 110 115 120 125 130 135 140 145 150 154 158 162 167 171 176 181 186 191 196 201 205 210 214 219 224 229 234 235 238 243 246 251 254 258 261 270 274 278 282 286 291 296 301 0
d 307 201 291 0
d 308 306 201 291 0
d 309 306 201 291 0
d 310 1 2 6 7 12 13 18 23 24 29 30 35 40 45 50 55 60 65 70 75 80 85 90 95 100 105 110 115 120 125 130 135 140 145 150 154 158 162 167 171 176 181 186 191 196 201 205 210 214 219 224 229 234 235 238 243 246 251 254 258 261 270 274 278 282 286 291 296 301 306 0
d 312 24 278 0
d 313 311 24 278 0
d 314 311 24 278 0
d 315 1 2 6 7 12 13 18 23 24 29 30 35 40 45 50 55 60 65 70 75 80 85 90 95 100 105 110 115 120 125 130 135 140 145 150 154 158 162 167 171 176 181 186 191 196 201 205 210 214 219 224 229 234 235 238 243 246 251 254 258 261 270 274 278 282 286 291 296 301 306 311 0
d 317 162 311 0
d 318 316 162 311 0
d 319 316 162 311 0
d 320 1 2 6 7 12 13 18 23 24 29 30 35 40 45 50 55 60 65 70 75 80 85 90 95 100 105 110 115 120 125 130 135 140 145 150 154 158 162 167 171 176 181 186 191 196 201 205 210 214 219 224 229 234 235 238 243 246 251 254 258 261 270 274 278 282 286 291 296 301 306 311 316 0
d 322 321 311 0
d 323 321 311 0
d 324 1 2 6 7 12 13 18 23 24 29 30 35 40 45 50 55 60 65 70 75 80 85 90 95 100 105 110 115 120 125 130 135 140 145 150 154 158 162 167 171 176 181 186 191 196 201 205 210 214 219 224 229 234 235 238 243 246 251 254 258 261 270 274 278 282 286 291 296 301 306 311 316 321 0
d 326 325 158 0
d 327 325 158 0
d 328 1 2 6 7 12 13 18 23 24 29 30 35 40 45 50 55 60 65 70 75 80 85 90 95 100 105 110 115 120 125 130 135 140 145 150 154 158 162 167 171 176 181 186 191 196 201 205 210 214 219 224 229 234 235 238 243 246 251 254 258 261 270 274 278 282 286 291 296 301 306 311 316 321 325 0
d 330 191 311 0
d 331 329 191 311 0
d 332 329 191 311 0
d 333 1 2 6 7 12 13 18 23 24 29 30 35 40 45 50 55 60 65 70 75 80 85 90 95 100 105 110 115 120 125 130 135 140 145 150 154 158 162 167 171 176 181 186 191 196 201 205 210 214 219 224 229 234 235 238 243 246 251 254 258 261 270 274 278 282 286 291 296 301 306 311 316 321 325 329 0
d 335 201 311 0
d 336 334 201 311 0
d 337 334 201 311 0
d 338 1 2 6 7 12 13 18 23 24 29 30 35 40 45 50 55 60 65 70 75 80 85 90 95 100 105 110 115 120 125 130 135 140 145 150 154 158 162 167 171 176 181 186 191 196 201 205 210 214 219 224 229 234 235 238 243 246 251 254 258 261 270 274 278 282 286 291 296 301 306 311 316 321 325 329 334 0
d 342 2 341 0
d 343 2 341 296 0
d 344 286 2 503 341 296 0
d 346 2 345 0
d 347 2 345 301 0
d 349 2 348 0
d 350 2 348 306 0
d 351 2 345 301 348 306 0
d 352 286 2 503 341 296 345 301 348 306 0
d 354 2 353 0
d 355 2 353 316 0
d 357 2 353 316 513 321 7 325 0
d 359 2 358 0
d 360 2 358 329 0
d 362 2 361 0
d 363 2 361 334 0
d 364 2 358 329 361 334 0
d 365 2 353 316 513 321 7 325 358 329 361 334 0
d 366 286 2 503 341 296 345 301 348 306 353 316 513 321 7 325 358 329 361 334 0
d 367 339 286 2 503 341 296 345 301 348 306 353 316 513 321 7 325 358 329 361 334 0
d 368 339 286 2 503 341 296 345 301 348 306 353 316 513 321 7 325 358 329 361 334 0
d 369 1 2 6 7 12 13 18 23 24 29 30 35 40 45 50 55 60 65 70 75 80 85 90 95 100 105 110 115 120 125 130 135 140 145 150 154 158 162 167 171 176 181 186 191 196 201 205 210 214 219 224 229 234 235 238 243 246 251 254 258 261 270 274 278 282 286 291 296 301 306 311 316 321 325 329 334 339 503 341 345 348 353 513 358 361 0
d 372 2 371 0
d 373 2 371 176 0
d 375 2 374 0
d 376 2 374 186 0
d 377 2 371 176 374 186 0
d 379 2 378 0
d 380 2 378 196 0
d 382 2 381 0
d 383 2 381 205 0
d 384 2 378 196 381 205 0
d 385 2 371 176 374 186 378 196 381 205 0
d 387 2 386 0
d 388 2 386 214 0
d 390 2 389 0
d 391 2 389 219 0
d 392 2 386 214 389 219 0
d 394 2 393 0
d 395 2 393 224 0
d 397 2 396 0
d 398 2 396 229 0
d 399 2 393 224 396 229 0
d 400 2 386 214 389 219 393 224 396 229 0
d 401 2 371 176 374 186 378 196 381 205 386 214 389 219 393 224 396 229 0
d 402 370 2 371 176 374 186 378 196 381 205 386 214 389 219 393 224 396 229 0
d 403 370 2 371 176 374 186 378 196 381 205 386 214 389 219 393 224 396 229 0
d 404 1 2 6 7 12 13 18 23 24 29 30 35 40 45 50 55 60 65 70 75 80 85 90 95 100 105 110 115 120 125 130 135 140 145 150 154 158 162 167 171 176 181 186 191 196 201 205 210 214 219 224 229 234 235 238 243 246 251 254 258 261 270 274 278 282 286 291 296 301 306 311 316 321 325 329 334 339 503 341 345 348 353 513 358 361 370 371 374 378 381 386 389 393 396 0
d 406 405 181 0
d 407 405 181 0
d 408 1 2 6 7 12 13 18 23 24 29 30 35 40 45 50 55 60 65 70 75 80 85 90 95 100 105 110 115 120 125 130 135 140 145 150 154 158 162 167 171 176 181 186 191 196 201 205 210 214 219 224 229 234 235 238 243 246 251 254 258 261 270 274 278 282 286 291 296 301 306 311 316 321 325 329 334 339 503 341 345 348 353 513 358 361 370 371 374 378 381 386 389 393 396 405 0
d 410 409 291 0
d 411 409 291 0
d 412 1 2 6 7 12 13 18 23 24 29 30 35 40 45 50 55 60 65 70 75 80 85 90 95 100 105 110 115 120 125 130 135 140 145 150 154 158 162 167 171 176 181 186 191 196 201 205 210 214 219 224 229 234 235 238 243 246 251 254 258 261 270 274 278 282 286 291 296 301 306 311 316 321 325 329 334 339 503 341 345 348 353 513 358 361 370 371 374 378 381 386 389 393 396 405 409 0
d 415 150 414 0
d 416 150 414 270 274 282 7 0
d 418 150 414 270 274 282 7 457 405 409 2 0
d 420 150 419 0
d 421 150 419 301 0
d 423 150 422 0
d 424 150 422 306 0
d 425 150 419 301 422 306 0
d 426 150 414 270 274 282 7 457 405 409 2 419 301 422 306 0
d 427 413 150 414 270 274 282 7 457 405 409 2 419 301 422 306 0
d 428 413 150 414 270 274 282 7 457 405 409 2 419 301 422 306 0
d 429 1 2 6 7 12 13 18 23 24 29 30 35 40 45 50 55 60 65 70 75 80 85 90 95 100 105 110 115 120 125 130 135 140 145 150 154 158 162 167 171 176 181 186 191 196 201 205 210 214 219 224 229 234 235 238 243 246 251 254 258 261 270 274 278 282 286 291 296 301 306 311 316 321 325 329 334 339 503 341 345 348 353 513 358 361 370 371 374 378 381 386 389 393 396 405 409 413 414 457 419 422 0
d 431 181 311 0
d 432 430 181 311 0
d 433 430 181 311 0
d 434 1 2 6 7 12 13 18 23 24 29 30 35 40 45 50 55 60 65 70 75 80 85 90 95 100 105 110 115 120 125 130 135 140 145 150 154 158 162 167 171 176 181 186 191 196 201 205 210 214 219 224 229 234 235 238 243 246 251 254 258 261 270 274 278 282 286 291 296 301 306 311 316 321 325 329 334 339 503 341 345 348 353 513 358 361 370 371 374 378 381 386 389 393 396 405 409 413 414 457 419 422 430 0
d 437 150 436 0
d 438 150 436 316 0
d 440 150 439 0
d 441 150 439 430 0
d 442 150 436 316 439 430 0
d 444 150 443 0
d 445 150 443 329 0
d 447 150 446 0
d 448 150 446 334 0
d 449 150 443 329 446 334 0
d 450 150 436 316 439 430 443 329 446 334 0
d 451 435 150 436 316 439 430 443 329 446 334 0
d 452 435 150 436 316 439 430 443 329 446 334 0
d 453 1 2 6 7 12 13 18 23 24 29 30 35 40 45 50 55 60 65 70 75 80 85 90 95 100 105 110 115 120 125 130 135 140 145 150 154 158 162 167 171 176 181 186 191 196 201 205 210 214 219 224 229 234 235 238 243 246 251 254 258 261 270 274 278 282 286 291 296 301 306 311 316 321 325 329 334 339 503 341 345 348 353 513 358 361 370 371 374 378 381 386 389 393 396 405 409 413 414 457 419 422 430 435 436 439 443 446 0
d 455 1 414 0
d 456 1 414 40 0
d 458 1 457 0
d 459 1 457 50 0
d 460 1 414 40 457 50 0
d 461 1 419 0
d 462 1 419 60 0
d 463 1 422 0
d 464 1 422 70 0
d 465 1 419 60 422 70 0
d 466 1 414 40 457 50 419 60 422 70 0
d 467 1 436 0
d 468 1 436 80 0
d 469 1 439 0
d 470 1 439 85 0
d 471 1 436 80 439 85 0
d 472 1 443 0
d 473 1 443 90 0
d 474 1 446 0
d 475 1 446 95 0
d 476 1 443 90 446 95 0
d 477 1 436 80 439 85 443 90 446 95 0
d 478 1 414 40 457 50 419 60 422 70 436 80 439 85 443 90 446 95 0
d 479 1 235 0
d 480 1 235 105 0
d 481 1 238 0
d 482 1 238 110 0
d 483 1 235 105 238 110 0
d 484 1 243 0
d 485 1 243 115 0
d 486 1 246 0
d 487 1 246 120 0
d 488 1 243 115 246 120 0
d 489 1 235 105 238 110 243 115 246 120 0
d 490 1 251 0
d 491 1 251 130 0
d 492 1 254 0
d 493 1 254 135 0
d 494 1 251 130 254 135 0
d 495 1 258 0
d 496 1 258 140 0
d 497 1 261 0
d 498 1 261 145 0
d 499 1 258 140 261 145 0
d 500 1 251 130 254 135 258 140 261 145 0
d 501 1 235 105 238 110 243 115 246 120 251 130 254 135 258 140 261 145 0
d 502 1 414 40 457 50 419 60 422 70 436 80 439 85 443 90 446 95 235 105 238 110 243 115 246 120 251 130 254 135 258 140 261 145 0
d 504 2 503 0
d 505 2 503 40 0
d 506 2 341 50 0
d 507 2 503 40 341 50 0
d 508 2 345 60 0
d 509 2 348 70 0
d 510 2 345 60 348 70 0
d 511 2 503 40 341 50 345 60 348 70 0
d 512 2 353 80 0
d 514 2 513 0
d 515 2 513 85 0
d 516 2 353 80 513 85 0
d 517 2 358 90 0
d 518 2 361 95 0
d 519 2 358 90 361 95 0
d 520 2 353 80 513 85 358 90 361 95 0
d 521 2 503 40 341 50 345 60 348 70 353 80 513 85 358 90 361 95 0
d 522 2 371 105 0
d 523 2 374 110 0
d 524 2 371 105 374 110 0
d 525 2 378 115 0
d 526 2 381 120 0
d 527 2 378 115 381 120 0
d 528 2 371 105 374 110 378 115 381 120 0
d 529 2 386 130 0
d 530 2 389 135 0
d 531 2 386 130 389 135 0
d 532 2 393 140 0
d 533 2 396 145 0
d 534 2 393 140 396 145 0
d 535 2 386 130 389 135 393 140 396 145 0
d 536 2 371 105 374 110 378 115 381 120 386 130 389 135 393 140 396 145 0
d 537 2 503 40 341 50 345 60 348 70 353 80 513 85 358 90 361 95 371 105 374 110 378 115 381 120 386 130 389 135 393 140 396 145 0
d 538 1 414 40 457 50 419 60 422 70 436 80 439 85 443 90 446 95 235 105 238 110 243 115 246 120 251 130 254 135 258 140 261 145 2 503 341 345 348 353 513 358 361 371 374 378 381 386 389 393 396 0
d 539 234 339 370 413 435 1 414 40 457 50 419 60 422 70 436 80 439 85 443 90 446 95 235 105 238 110 243 115 246 120 251 130 254 135 258 140 261 145 2 503 341 345 348 353 513 358 361 371 374 378 381 386 389 393 396 0
d 540 1 2 6 7 12 13 18 23 24 29 30 35 40 45 50 55 60 65 70 75 80 85 90 95 100 105 110 115 120 125 130 135 140 145 150 154 158 162 167 171 176 181 186 191 196 201 205 210 214 219 224 229 234 235 238 243 246 251 254 258 261 270 274 278 282 286 291 296 301 306 311 316 321 325 329 334 339 503 341 345 348 353 513 358 361 370 371 374 378 381 386 389 393 396 405 409 413 414 457 419 422 430 435 436 439 443 446 0
3 2 0
-3 -2 0
4 -1 -3 0
4 1 3 0
-4 -1 3 0
-4 1 -3 0
5 4 0
-5 -4 0
8 7 0
-8 -7 0
9 -6 -8 0
9 6 8 0
-9 -6 8 0
-9 6 -8 0
10 9 0
-10 -9 0
11 -5 0
11 -10 0
-11 5 10 0
14 13 0
-14 -13 0
15 -12 -14 0
15 12 14 0
-15 -12 14 0
-15 12 -14 0
16 15 0
-16 -15 0
17 -11 0
17 -16 0
-17 11 16 0
-19 6 0
-19 12 0
19 -6 -12 0
20 -18 -19 0
20 18 19 0
-20 -18 19 0
-20 18 -19 0
21 20 0
-21 -20 0
22 -17 0
22 -21 0
-22 17 21 0
25 24 0
-25 -24 0
26 -23 -25 0
26 23 25 0
-26 -23 25 0
-26 23 -25 0
27 26 0
-27 -26 0
28 -22 0
28 -27 0
-28 22 27 0
31 30 0
-31 -30 0
32 -29 -31 0
32 29 31 0
-32 -29 31 0
-32 29 -31 0
33 32 0
-33 -32 0
34 -28 0
34 -33 0
-34 28 33 0
-36 23 0
-36 29 0
36 -23 -29 0
37 -35 -36 0
37 35 36 0
-37 -35 36 0
-37 35 -36 0
38 37 0
-38 -37 0
39 -34 0
39 -38 0
-39 34 38 0
-41 18 0
-41 35 0
41 -18 -35 0
42 -40 -41 0
42 40 41 0
-42 -40 41 0
-42 40 -41 0
43 42 0
-43 -42 0
44 -39 0
44 -43 0
-44 39 43 0
-46 7 0
-46 12 0
46 -7 -12 0
47 -45 -46 0
47 45 46 0
-47 -45 46 0
-47 45 -46 0
48 47 0
-48 -47 0
49 -44 0
49 -48 0
-49 44 48 0
-51 45 0
-51 35 0
51 -45 -35 0
52 -50 -51 0
52 50 51 0
-52 -50 51 0
-52 50 -51 0
53 52 0
-53 -52 0
54 -49 0
54 -53 0
-54 49 53 0
-56 6 0
-56 13 0
56 -6 -13 0
57 -55 -56 0
57 55 56 0
-57 -55 56 0
-57 55 -56 0
58 57 0
-58 -57 0
59 -54 0
59 -58 0
-59 54 58 0
-61 55 0
-61 35 0
61 -55 -35 0
62 -60 -61 0
62 60 61 0
-62 -60 61 0
-62 60 -61 0
63 62 0
-63 -62 0
64 -59 0
64 -63 0
-64 59 63 0
-66 7 0
-66 13 0
66 -7 -13 0
67 -65 -66 0
67 65 66 0
-67 -65 66 0
-67 65 -66 0
68 67 0
-68 -67 0
69 -64 0
69 -68 0
-69 64 68 0
-71 65 0
-71 35 0
71 -65 -35 0
72 -70 -71 0
72 70 71 0
-72 -70 71 0
-72 70 -71 0
73 72 0
-73 -72 0
74 -69 0
74 -73 0
-74 69 73 0
-76 24 0
-76 29 0
76 -24 -29 0
77 -75 -76 0
77 75 76 0
-77 -75 76 0
-77 75 -76 0
78 77 0
-78 -77 0
79 -74 0
79 -78 0
-79 74 78 0
-81 18 0
-81 75 0
81 -18 -75 0
82 -80 -81 0
82 80 81 0
-82 -80 81 0
-82 80 -81 0
83 82 0
-83 -82 0
84 -79 0
84 -83 0
-84 79 83 0
-86 45 0
-86 75 0
86 -45 -75 0
87 -85 -86 0
87 85 86 0
-87 -85 86 0
-87 85 -86 0
88 87 0
-88 -87 0
89 -84 0
89 -88 0
-89 84 88 0
-91 55 0
-91 75 0
91 -55 -75 0
92 -90 -91 0
92 90 91 0
-92 -90 91 0
-92 90 -91 0
93 92 0
-93 -92 0
94 -89 0
94 -93 0
-94 89 93 0
-96 65 0
-96 75 0
96 -65 -75 0
97 -95 -96 0
97 95 96 0
-97 -95 96 0
-97 95 -96 0
98 97 0
-98 -97 0
99 -94 0
99 -98 0
-99 94 98 0
-101 23 0
-101 30 0
101 -23 -30 0
102 -100 -101 0
102 100 101 0
-102 -100 101 0
-102 100 -101 0
103 102 0
-103 -102 0
104 -99 0
104 -103 0
-104 99 103 0
-106 18 0
-106 100 0
106 -18 -100 0
107 -105 -106 0
107 105 106 0
-107 -105 106 0
-107 105 -106 0
108 107 0
-108 -107 0
109 -104 0
109 -108 0
-109 104 108 0
-111 45 0
-111 100 0
111 -45 -100 0
112 -110 -111 0
112 110 111 0
-112 -110 111 0
-112 110 -111 0
113 112 0
-113 -112 0
114 -109 0
114 -113 0
-114 109 113 0
-116 55 0
-116 100 0
116 -55 -100 0
117 -115 -116 0
117 115 116 0
-117 -115 116 0
-117 115 -116 0
118 117 0
-118 -117 0
119 -114 0
119 -118 0
-119 114 118 0
-121 65 0
-121 100 0
121 -65 -100 0
122 -120 -121 0
122 120 121 0
-122 -120 121 0
-122 120 -121 0
123 122 0
-123 -122 0
124 -119 0
124 -123 0
-124 119 123 0
-126 24 0
-126 30 0
126 -24 -30 0
127 -125 -126 0
127 125 126 0
-127 -125 126 0
-127 125 -126 0
128 127 0
-128 -127 0
129 -124 0
129 -128 0
-129 124 128 0
-131 18 0
-131 125 0
131 -18 -125 0
132 -130 -131 0
132 130 131 0
-132 -130 131 0
-132 130 -131 0
133 132 0
-133 -132 0
134 -129 0
134 -133 0
-134 129 133 0
-136 45 0
-136 125 0
136 -45 -125 0
137 -135 -136 0
137 135 136 0
-137 -135 136 0
-137 135 -136 0
138 137 0
-138 -137 0
139 -134 0
139 -138 0
-139 134 138 0
-141 55 0
-141 125 0
141 -55 -125 0
142 -140 -141 0
142 140 141 0
-142 -140 141 0
-142 140 -141 0
143 142 0
-143 -142 0
144 -139 0
144 -143 0
-144 139 143 0
-146 65 0
-146 125 0
146 -65 -125 0
147 -145 -146 0
147 145 146 0
-147 -145 146 0
-147 145 -146 0
148 147 0
-148 -147 0
149 -144 0
149 -148 0
-149 144 148 0
151 -150 -3 0
151 150 3 0
-151 -150 3 0
-151 150 -3 0
152 151 0
-152 -151 0
153 -149 0
153 -152 0
-153 149 152 0
155 -154 -8 0
155 154 8 0
-155 -154 8 0
-155 154 -8 0
156 155 0
-156 -155 0
157 -153 0
157 -156 0
-157 153 156 0
159 -158 -14 0
159 158 14 0
-159 -158 14 0
-159 158 -14 0
160 159 0
-160 -159 0
161 -157 0
161 -160 0
-161 157 160 0
-163 154 0
-163 158 0
163 -154 -158 0
164 -162 -163 0
164 162 163 0
-164 -162 163 0
-164 162 -163 0
165 164 0
-165 -164 0
166 -161 0
166 -165 0
-166 161 165 0
168 -167 -25 0
168 167 25 0
-168 -167 25 0
-168 167 -25 0
169 168 0
-169 -168 0
170 -166 0
170 -169 0
-170 166 169 0
-172 167 0
-172 30 0
172 -167 -30 0
173 -171 -172 0
173 171 172 0
-173 -171 172 0
-173 171 -172 0
174 173 0
-174 -173 0
175 -170 0
175 -174 0
-175 170 174 0
-177 162 0
-177 171 0
177 -162 -171 0
178 -176 -177 0
178 176 177 0
-178 -176 177 0
-178 176 -177 0
179 178 0
-179 -178 0
180 -175 0
180 -179 0
-180 175 179 0
-182 7 0
-182 158 0
182 -7 -158 0
183 -181 -182 0
183 181 182 0
-183 -181 182 0
-183 181 -182 0
184 183 0
-184 -183 0
185 -180 0
185 -184 0
-185 180 184 0
-187 181 0
-187 171 0
187 -181 -171 0
188 -186 -187 0
188 186 187 0
-188 -186 187 0
-188 186 -187 0
189 188 0
-189 -188 0
190 -185 0
190 -189 0
-190 185 189 0
-192 154 0
-192 13 0
192 -154 -13 0
193 -191 -192 0
193 191 192 0
-193 -191 192 0
-193 191 -192 0
194 193 0
-194 -193 0
195 -190 0
195 -194 0
-195 190 194 0
-197 191 0
-197 171 0
197 -191 -171 0
198 -196 -197 0
198 196 197 0
-198 -196 197 0
-198 196 -197 0
199 198 0
-199 -198 0
200 -195 0
200 -199 0
-200 195 199 0
202 -201 -66 0
202 201 66 0
-202 -201 66 0
-202 201 -66 0
203 202 0
-203 -202 0
204 -200 0
204 -203 0
-204 200 203 0
-206 201 0
-206 171 0
206 -201 -171 0
207 -205 -206 0
207 205 206 0
-207 -205 206 0
-207 205 -206 0
208 207 0
-208 -207 0
209 -204 0
209 -208 0
-209 204 208 0
211 -210 -126 0
211 210 126 0
-211 -210 126 0
-211 210 -126 0
212 211 0
-212 -211 0
213 -209 0
213 -212 0
-213 209 212 0
-215 162 0
-215 210 0
215 -162 -210 0
216 -214 -215 0
216 214 215 0
-216 -214 215 0
-216 214 -215 0
217 216 0
-217 -216 0
218 -213 0
218 -217 0
-218 213 217 0
-220 181 0
-220 210 0
220 -181 -210 0
221 -219 -220 0
221 219 220 0
-221 -219 220 0
-221 219 -220 0
222 221 0
-222 -221 0
223 -218 0
223 -222 0
-223 218 222 0
-225 191 0
-225 210 0
225 -191 -210 0
226 -224 -225 0
226 224 225 0
-226 -224 225 0
-226 224 -225 0
227 226 0
-227 -226 0
228 -223 0
228 -227 0
-228 223 227 0
-230 201 0
-230 210 0
230 -201 -210 0
231 -229 -230 0
231 229 230 0
-231 -229 230 0
-231 229 -230 0
232 231 0
-232 -231 0
233 -228 0
233 -232 0
-233 228 232 0
-236 150 0
-236 235 0
236 -150 -235 0
-237 236 0
-237 176 0
237 -236 -176 0
-239 150 0
-239 238 0
239 -150 -238 0
240 -239 0
240 -186 0
-240 239 186 0
241 240 0
-241 -240 0
242 -237 0
242 -241 0
-242 237 241 0
-244 150 0
-244 243 0
244 -150 -243 0
-245 244 0
-245 196 0
245 -244 -196 0
-247 150 0
-247 246 0
247 -150 -246 0
-248 247 0
-248 205 0
248 -247 -205 0
249 -245 0
249 -248 0
-249 245 248 0
250 -242 0
250 -249 0
-250 242 249 0
-252 150 0
-252 251 0
252 -150 -251 0
-253 252 0
-253 214 0
253 -252 -214 0
-255 150 0
-255 254 0
255 -150 -254 0
-256 255 0
-256 219 0
256 -255 -219 0
257 -253 0
257 -256 0
-257 253 256 0
-259 150 0
-259 258 0
259 -150 -258 0
-260 259 0
-260 224 0
260 -259 -224 0
-262 150 0
-262 261 0
262 -150 -261 0
-263 262 0
-263 229 0
263 -262 -229 0
264 -260 0
264 -263 0
-264 260 263 0
265 -257 0
265 -264 0
-265 257 264 0
266 -250 0
266 -265 0
-266 250 265 0
267 -234 -266 0
267 234 266 0
-267 -234 266 0
-267 234 -266 0
268 267 0
-268 -267 0
269 -233 0
269 -268 0
-269 233 268 0
271 -270 -158 0
271 270 158 0
-271 -270 158 0
-271 270 -158 0
272 271 0
-272 -271 0
273 -269 0
273 -272 0
-273 269 272 0
275 -274 -167 0
275 274 167 0
-275 -274 167 0
-275 274 -167 0
276 275 0
-276 -275 0
277 -273 0
277 -276 0
-277 273 276 0
279 -278 -31 0
279 278 31 0
-279 -278 31 0
-279 278 -31 0
280 279 0
-280 -279 0
281 -277 0
281 -280 0
-281 277 280 0
283 -282 -278 0
283 282 278 0
-283 -282 278 0
-283 282 -278 0
284 283 0
-284 -283 0
285 -281 0
285 -284 0
-285 281 284 0
288 -286 -287 0
288 286 287 0
-288 -286 287 0
-288 286 -287 0
289 288 0
-289 -288 0
290 -285 0
290 -289 0
-290 285 289 0
-292 167 0
-292 278 0
292 -167 -278 0
293 -291 -292 0
293 291 292 0
-293 -291 292 0
-293 291 -292 0
294 293 0
-294 -293 0
295 -290 0
295 -294 0
-295 290 294 0
-297 181 0
-297 291 0
297 -181 -291 0
298 -296 -297 0
298 296 297 0
-298 -296 297 0
-298 296 -297 0
299 298 0
-299 -298 0
300 -295 0
300 -299 0
-300 295 299 0
-302 191 0
-302 291 0
302 -191 -291 0
303 -301 -302 0
303 301 302 0
-303 -301 302 0
-303 301 -302 0
304 303 0
-304 -303 0
305 -300 0
305 -304 0
-305 300 304 0
-307 201 0
-307 291 0
307 -201 -291 0
308 -306 -307 0
308 306 307 0
-308 -306 307 0
-308 306 -307 0
309 308 0
-309 -308 0
310 -305 0
310 -309 0
-310 305 309 0
-312 24 0
-312 278 0
312 -24 -278 0
313 -311 -312 0
313 311 312 0
-313 -311 312 0
-313 311 -312 0
314 313 0
-314 -313 0
315 -310 0
315 -314 0
-315 310 314 0
-317 162 0
-317 311 0
317 -162 -311 0
318 -316 -317 0
318 316 317 0
-318 -316 317 0
-318 316 -317 0
319 318 0
-319 -318 0
320 -315 0
320 -319 0
-320 315 319 0
322 -321 -311 0
322 321 311 0
-322 -321 311 0
-322 321 -311 0
323 322 0
-323 -322 0
324 -320 0
324 -323 0
-324 320 323 0
326 -325 -158 0
326 325 158 0
-326 -325 158 0
-326 325 -158 0
327 326 0
-327 -326 0
328 -324 0
328 -327 0
-328 324 327 0
-330 191 0
-330 311 0
330 -191 -311 0
331 -329 -330 0
331 329 330 0
-331 -329 330 0
-331 329 -330 0
332 331 0
-332 -331 0
333 -328 0
333 -332 0
-333 328 332 0
-335 201 0
-335 311 0
335 -201 -311 0
336 -334 -335 0
336 334 335 0
-336 -334 335 0
-336 334 -335 0
337 336 0
-337 -336 0
338 -333 0
338 -337 0
-338 333 337 0
-342 2 0
-342 341 0
342 -2 -341 0
-343 342 0
-343 296 0
343 -342 -296 0
344 -340 0
344 -343 0
-344 340 343 0
-346 2 0
-346 345 0
346 -2 -345 0
-347 346 0
-347 301 0
347 -346 -301 0
-349 2 0
-349 348 0
349 -2 -348 0
-350 349 0
-350 306 0
350 -349 -306 0
351 -347 0
351 -350 0
-351 347 350 0
352 -344 0
352 -351 0
-352 344 351 0
-354 2 0
-354 353 0
354 -2 -353 0
-355 354 0
-355 316 0
355 -354 -316 0
357 -355 0
357 -356 0
-357 355 356 0
-359 2 0
-359 358 0
359 -2 -358 0
-360 359 0
-360 329 0
360 -359 -329 0
-362 2 0
-362 361 0
362 -2 -361 0
-363 362 0
-363 334 0
363 -362 -334 0
364 -360 0
364 -363 0
-364 360 363 0
365 -357 0
365 -364 0
-365 357 364 0
366 -352 0
366 -365 0
-366 352 365 0
367 -339 -366 0
367 339 366 0
-367 -339 366 0
-367 339 -366 0
368 367 0
-368 -367 0
369 -338 0
369 -368 0
-369 338 368 0
-372 2 0
-372 371 0
372 -2 -371 0
-373 372 0
-373 176 0
373 -372 -176 0
-375 2 0
-375 374 0
375 -2 -374 0
-376 375 0
-376 186 0
376 -375 -186 0
377 -373 0
377 -376 0
-377 373 376 0
-379 2 0
-379 378 0
379 -2 -378 0
-380 379 0
-380 196 0
380 -379 -196 0
-382 2 0
-382 381 0
382 -2 -381 0
-383 382 0
-383 205 0
383 -382 -205 0
384 -380 0
384 -383 0
-384 380 383 0
385 -377 0
385 -384 0
-385 377 384 0
-387 2 0
-387 386 0
387 -2 -386 0
-388 387 0
-388 214 0
388 -387 -214 0
-390 2 0
-390 389 0
390 -2 -389 0
-391 390 0
-391 219 0
391 -390 -219 0
392 -388 0
392 -391 0
-392 388 391 0
-394 2 0
-394 393 0
394 -2 -393 0
-395 394 0
-395 224 0
395 -394 -224 0
-397 2 0
-397 396 0
397 -2 -396 0
-398 397 0
-398 229 0
398 -397 -229 0
399 -395 0
399 -398 0
-399 395 398 0
400 -392 0
400 -399 0
-400 392 399 0
401 -385 0
401 -400 0
-401 385 400 0
402 -370 -401 0
402 370 401 0
-402 -370 401 0
-402 370 -401 0
403 402 0
-403 -402 0
404 -369 0
404 -403 0
-404 369 403 0
406 -405 -181 0
406 405 181 0
-406 -405 181 0
-406 405 -181 0
407 406 0
-407 -406 0
408 -404 0
408 -407 0
-408 404 407 0
410 -409 -291 0
410 409 291 0
-410 -409 291 0
-410 409 -291 0
411 410 0
-411 -410 0
412 -408 0
412 -411 0
-412 408 411 0
-415 150 0
-415 414 0
415 -150 -414 0
-416 415 0
-416 287 0
416 -415 -287 0
418 -416 0
418 -417 0
-418 416 417 0
-420 150 0
-420 419 0
420 -150 -419 0
-421 420 0
-421 301 0
421 -420 -301 0
-423 150 0
-423 422 0
423 -150 -422 0
-424 423 0
-424 306 0
424 -423 -306 0
425 -421 0
425 -424 0
-425 421 424 0
426 -418 0
426 -425 0
-426 418 425 0
427 -413 -426 0
427 413 426 0
-427 -413 426 0
-427 413 -426 0
428 427 0
-428 -427 0
429 -412 0
429 -428 0
-429 412 428 0
-431 181 0
-431 311 0
431 -181 -311 0
432 -430 -431 0
432 430 431 0
-432 -430 431 0
-432 430 -431 0
433 432 0
-433 -432 0
434 -429 0
434 -433 0
-434 429 433 0
-437 150 0
-437 436 0
437 -150 -436 0
-438 437 0
-438 316 0
438 -437 -316 0
-440 150 0
-440 439 0
440 -150 -439 0
-441 440 0
-441 430 0
441 -440 -430 0
442 -438 0
442 -441 0
-442 438 441 0
-444 150 0
-444 443 0
444 -150 -443 0
-445 444 0
-445 329 0
445 -444 -329 0
-447 150 0
-447 446 0
447 -150 -446 0
-448 447 0
-448 334 0
448 -447 -334 0
449 -445 0
449 -448 0
-449 445 448 0
450 -442 0
450 -449 0
-450 442 449 0
451 -435 -450 0
451 435 450 0
-451 -435 450 0
-451 435 -450 0
452 451 0
-452 -451 0
453 -434 0
453 -452 0
-453 434 452 0
-455 1 0
-455 414 0
455 -1 -414 0
-456 455 0
-456 40 0
456 -455 -40 0
-458 1 0
-458 457 0
458 -1 -457 0
-459 458 0
-459 50 0
459 -458 -50 0
460 -456 0
460 -459 0
-460 456 459 0
-461 1 0
-461 419 0
461 -1 -419 0
-462 461 0
-462 60 0
462 -461 -60 0
-463 1 0
-463 422 0
463 -1 -422 0
-464 463 0
-464 70 0
464 -463 -70 0
465 -462 0
465 -464 0
-465 462 464 0
466 -460 0
466 -465 0
-466 460 465 0
-467 1 0
-467 436 0
467 -1 -436 0
-468 467 0
-468 80 0
468 -467 -80 0
-469 1 0
-469 439 0
469 -1 -439 0
-470 469 0
-470 85 0
470 -469 -85 0
471 -468 0
471 -470 0
-471 468 470 0
-472 1 0
-472 443 0
472 -1 -443 0
-473 472 0
-473 90 0
473 -472 -90 0
-474 1 0
-474 446 0
474 -1 -446 0
-475 474 0
-475 95 0
475 -474 -95 0
476 -473 0
476 -475 0
-476 473 475 0
477 -471 0
477 -476 0
-477 471 476 0
478 -466 0
478 -477 0
-478 466 477 0
-479 1 0
-479 235 0
479 -1 -235 0
-480 479 0
-480 105 0
480 -479 -105 0
-481 1 0
-481 238 0
481 -1 -238 0
-482 481 0
-482 110 0
482 -481 -110 0
483 -480 0
483 -482 0
-483 480 482 0
-484 1 0
-484 243 0
484 -1 -243 0
-485 484 0
-485 115 0
485 -484 -115 0
-486 1 0
-486 246 0
486 -1 -246 0
-487 486 0
-487 120 0
487 -486 -120 0
488 -485 0
488 -487 0
-488 485 487 0
489 -483 0
489 -488 0
-489 483 488 0
-490 1 0
-490 251 0
490 -1 -251 0
-491 490 0
-491 130 0
491 -490 -130 0
-492 1 0
-492 254 0
492 -1 -254 0
-493 492 0
-493 135 0
493 -492 -135 0
494 -491 0
494 -493 0
-494 491 493 0
-495 1 0
-495 258 0
495 -1 -258 0
-496 495 0
-496 140 0
496 -495 -140 0
-497 1 0
-497 261 0
497 -1 -261 0
-498 497 0
-498 145 0
498 -497 -145 0
499 -496 0
499 -498 0
-499 496 498 0
500 -494 0
500 -499 0
-500 494 499 0
501 -489 0
501 -500 0
-501 489 500 0
502 -478 0
502 -501 0
-502 478 501 0
-504 2 0
-504 503 0
504 -2 -503 0
-505 504 0
-505 40 0
505 -504 -40 0
-506 342 0
-506 50 0
506 -342 -50 0
507 -505 0
507 -506 0
-507 505 506 0
-508 346 0
-508 60 0
508 -346 -60 0
-509 349 0
-509 70 0
509 -349 -70 0
510 -508 0
510 -509 0
-510 508 509 0
511 -507 0
511 -510 0
-511 507 510 0
-512 354 0
-512 80 0
512 -354 -80 0
-514 2 0
-514 513 0
514 -2 -513 0
-515 514 0
-515 85 0
515 -514 -85 0
516 -512 0
516 -515 0
-516 512 515 0
-517 359 0
-517 90 0
517 -359 -90 0
-518 362 0
-518 95 0
518 -362 -95 0
519 -517 0
519 -518 0
-519 517 518 0
520 -516 0
520 -519 0
-520 516 519 0
521 -511 0
521 -520 0
-521 511 520 0
-522 372 0
-522 105 0
522 -372 -105 0
-523 375 0
-523 110 0
523 -375 -110 0
524 -522 0
524 -523 0
-524 522 523 0
-525 379 0
-525 115 0
525 -379 -115 0
-526 382 0
-526 120 0
526 -382 -120 0
527 -525 0
527 -526 0
-527 525 526 0
528 -524 0
528 -527 0
-528 524 527 0
-529 387 0
-529 130 0
529 -387 -130 0
-530 390 0
-530 135 0
530 -390 -135 0
531 -529 0
531 -530 0
-531 529 530 0
-532 394 0
-532 140 0
532 -394 -140 0
-533 397 0
-533 145 0
533 -397 -145 0
534 -532 0
534 -533 0
-534 532 533 0
535 -531 0
535 -534 0
-535 531 534 0
536 -528 0
536 -535 0
-536 528 535 0
537 -521 0
537 -536 0
-537 521 536 0
538 -502 0
538 -537 0
-538 502 537 0
539 -454 -538 0
539 454 538 0
-539 -454 538 0
-539 454 -538 0
540 -453 0
540 -539 0
-540 453 539 0
540 0
